
  32   50
   4   12   10   19   17   23   12   10    9   11    5   18    0    7   14    6    6    6    8   13   14    8    8   14   16   10    9   19   17   16    6   13    0    0    0    0    0    0    0    0    0    0    0    0    0    0    0    0    0    0

   0   0   0   0   0   0   0   0   0   0   0   0   0   0   0   0   0   0   0   0   0   0   0   0   0   0   0   0   0   0   0   0   0   0   0   0   0   0   0   0   0   0   0   0   0   0   0   0   0   0   0  14 2 3 4 5 6 7 8 9 10 11 12 13 14 20 
   4   0   0   0   0   0   5   0  10   0   0   0   0   0   0   0   0   0   0   0   0   0   0   0   0   0  10   9   0   8   0   0   0   0   0   0   0   0   0   0   0   0   0   0   0   0   0   0   0   0   0   6 22 21 19 18 17 15 
   2   0   0   0   0   0   8   0   0   0   0   0   0   0   0   0   0   0   0   7   0   0   0   0   0   0   0   0   0   2   0   0   0   0   0   0   0   0   0   0   0   0   0   0   0   0   0   0   0   0   0   6 31 30 21 19 18 15 
   3   0   0   0   0   0   0   9   0   0   0   0   0   0   0  10   0   0   0   0   0   3   0   0   0   0   0   0   0   0   0   0   0   0   0   0   0   0   0   0   0   0   0   0   0   0   0   0   0   0   0   5 23 22 19 17 15 
   8   0   0   0   0   0   8   0   0   0  10   5   0   0   0   7   0   0   0   0   0   0   0   0   2   8   0   0   0   5   0   0   0   0   0   0   0   0   0   0   0   0   0   0   0   0   0   0   0   0   0   5 30 28 21 18 15 
   7   0   0   0   0   0   0   0   0   0   0   0   6   0   0   0   0   0   0   0   0   0   0   0   0   9   0   0   0   0   0   0   0   0   0   0   0   0   0   0   0   0   0   0   0   0   0   0   0   0   0   4 21 19 16 15 
   9   0   0   0   0   5   0   0   0   0   0   0   0   0   0   0   0   0   0   0   0   0   0   0   3   0   0   0   4   0   0   0   0   0   0   0   0   0   0   0   0   0   0   0   0   0   0   0   0   0   0   4 30 23 22 15 
   9   0   0   0   0   0   0   0   0   0   0   0   0   0   0   0   0   0   0   0   0   0   0   0   6   0   0   0   0   0   0   0   0   0   0   0   0   0   0   0   0   0   0   0   0   0   0   0   0   0   0   4 30 27 18 16 
   9   0   0   0  10   6   0   0   0   0   0   0   0   0   0   0   0   0   0   0   0   0   0   0   4   0   0   0   1   8   0   0   0   0   0   0   0   0   0   0   0   0   0   0   0   0   0   0   0   0   0   3 21 19 16 
   2   0   0   3   0   0   0   0   0   0   0   0   0   0   0   0   0   0   0   0   0   0   0   0   0   0   0   0   4   0   0   2   3   0   0   0   0   0   0   0   0   0   0   0   0   0   0   0   0   0   0   4 31 24 19 18 
   8   0   0   3   0   0   0   0   0   0   0   0   0   0   0   0   0   0   0   0   0   5   0   0   0   0   0   0   6   0   6   0   0   0   0   0   0   0   0   0   0   0   0   0   0   0   0   0   0   0   0   5 30 26 25 23 21 
   5   0   6   0   0   0   0   0   0   6   0   0   4   0   0   0   0   0   0   0   6   0   0   0   2   3   0   0   0   0   0   0   0   0   0   0   0   0   0   0   0   0   0   0   0   0   0   0   0   0   0   3 24 23 15 
   9   0   0   0   0   0  10   0   0   5   0   0   0   0   0   0   6   0   0   0   0   0   0   0   0   0   0   0  10   0   0   0   0   0   0   0   0   0   0   0   0   0   0   0   0   0   0   0   0   0   0   3 28 24 18 
   1   1   0   7   3   0   0   0   0   0   0   0   0   0   7   0   0   0   6   0  10   0   0   4   0   0   0   0   0   0   0   5   0   0   0   0   0   0   0   0   0   0   0   0   0   0   0   0   0   0   0   2 26 18 
   1   0   0   0   0   5   0   0   0   0   0   0   0   0   0   0   0   0   0   0   0   3   0   0   0   0   0   0   0   0   0   0   2   0   0   0   0   0   0   0   0   0   0   0   0   0   0   0   0   0   0   3 29 27 26 
   1   0   0   6   0   0   0   0   0   0   0   0   0   0   0   0   0   0   0   7   0   0   7   0   1   0   0   0   0   0   0   0   0   0   0   0   0   0   0   0   0   0   0   0   0   0   0   0   0   0   0   3 26 24 23 
   9   0   0   0   9  10   0   0   0   0   0   0   4   0   0   0   0   0   0   0   0   0   0   0   0   0   0   0   0   0   0   0   0   0   0   0   0   0   0   0   0   0   0   0   0   0   0   0   0   0   0   3 31 27 24 
  10   0   0   0   0   0   0   0   0   0   0   0   0   0   0   0   0   0   0   2   1   0   0   0   0   0   0   0   0   3   0   0   0   0   0   0   0   0   0   0   0   0   0   0   0   0   0   0   0   0   0   2 25 23 
   9   0   0   0   0   0   0   6   6   0   0   0   0   0   0   3   0   0   0   0   0   0   0   0   0   0   0   0   0   0   0   0   0   0   0   0   0   0   0   0   0   0   0   0   0   0   0   0   0   0   0   2 28 25 
   5   0   0   0   5   0   0   0   0   0   0   0   4   0   0   0   0   0   0   0   0   9   0   0   0   0   0   0   0   0   0   0   0   0   0   0   0   0   0   0   0   0   0   0   0   0   0   0   0   0   0   2 24 23 
   5   0   0   0   0   0   0   0   0   0   0   0   0   0   0   0   0   0   0   0   2   0   0   0   0   5   0   0   0   0   0   0   8   0   0   0   0   0   0   0   0   0   0   0   0   0   0   0   0   0   0   1 24 
   2   4   0   0   0   0   0   8   0   4   3   5   5   0   0   0   0   0   0   0   0   0   0   8   0   0   0   0   0   0   0   0   0   0   0   0   0   0   0   0   0   0   0   0   0   0   0   0   0   0   0   1 25 
   2   0   0   0   0   0   9   0   4   0   0   0   7   0   1   0   0   6   0   0   0   0   0   0   0   0   8   0   0   0  10   1   0   0   0   0   0   0   0   0   0   0   0   0   0   0   0   0   0   0   0   1 32
   1   0   0   0   0   0   0   0   0   4   0   0  10   0   0   0   0   0   0   0   0   0   0   0   0   0   0   0   0   4   0   0   0   0   0   0   0   0   0   0   0   0   0   0   0   0   0   0   0   0   0   1 32
   2   0   0   0   0   0   0   0   0   0   7   0   0   0   0   0   0   0   0   0   0   0   0   0   0   0   0   1   0   0   0   0   0   0   0   0   0   0   0   0   0   0   0   0   0   0   0   0   0   0   0   1 32
   7   0  10   0   0   0   0   0   0   0  10   0   0   0   0   0   0   0   0   0   0   0   2   0   0   0   0   0   0   0   0   0   4   0   0   0   0   0   0   0   0   0   0   0   0   0   0   0   0   0   0   1 32
   9   0   0   0   0   0   0   9   0   0   0   0   0   0   0   0   0   0   0   0   0   0   3   0   5   0   0   0   2   0   0   0   4   0   0   0   0   0   0   0   0   0   0   0   0   0   0   0   0   0   0   1 32
   6   0   0   0   0   0   0   3   0   0   0   0   0   0   3   0   0   0   0   0   0   0   1   3   0   0   0   2   0   0  10   0   0   0   0   0   0   0   0   0   0   0   0   0   0   0   0   0   0   0   0   1 32
   6   0   4   0   0   0   0   0   0   0   0   0   0   0   0   1   0   0   0   0   0   0   0   0   9   9   0   3   0   0   0   0   0   0   0   0   0   0   0   0   0   0   0   0   0   0   0   0   0   0   0   1 32
  10   0   0   0   0   0   0   0   0   0   0   0   7   0   0   0   2   0   0   0   0   0   2   1   0   0   0   0   0   0   0   0   0   0   0   0   0   0   0   0   0   0   0   0   0   0   0   0   0   0   0   1 32
   9   0   0   0   0   0   0   0   0   0   0   0   6   0   0   2   0   0   0   0   0   0   0   0   0   0   0   0   5   0   0   2   0   0   0   0   0   0   0   0   0   0   0   0   0   0   0   0   0   0   0   1 32
   0   0   0   0   0   0   0   0   0   0   0   0   0   0   0   0   0   0   0   0   0   0   0   0   0   0   0   0   0   0   0   0   0   0   0   0   0   0   0   0   0   0   0   0   0   0   0   0   0   0   0   0 
